0 14
47 12
45 12
17 2
21 0
23 0
3 0
42 12
26 12
46 11
39 11
19 11
44 11
16 11
33 3
34 0
40 2
43 8
15 8
2 5
22 5
35 2
32 1
24 1
36 0
38 1
9 0
13 0
8 0
29 4
27 4
5 2
1 1
7 1
49 0
48 0
6 1
37 0
30 2
20 1
25 0
12 0
18 0
11 0
10 0
31 0
4 0
41 1
28 0
14 0
